(set-info :smt-lib-version 2.6)
(set-logic QF_UFLRA)
(set-info :source |
MathSat group

|)
(set-info :category "random")
(set-info :status sat)
(declare-fun x0 () Real)
(declare-fun x1 () Real)
(declare-fun x2 () Real)
(declare-fun x3 () Real)
(declare-fun x4 () Real)
(declare-fun x5 () Real)
(declare-fun x6 () Real)
(declare-fun x7 () Real)
(declare-fun x8 () Real)
(declare-fun x9 () Real)
(declare-fun x10 () Real)
(declare-fun x11 () Real)
(declare-fun x12 () Real)
(declare-fun x13 () Real)
(declare-fun x14 () Real)
(declare-fun x15 () Real)
(declare-fun x16 () Real)
(declare-fun x17 () Real)
(declare-fun x18 () Real)
(declare-fun x19 () Real)
(declare-fun x20 () Real)
(declare-fun x21 () Real)
(declare-fun x22 () Real)
(declare-fun x23 () Real)
(declare-fun x24 () Real)
(declare-fun x25 () Real)
(declare-fun x26 () Real)
(declare-fun x27 () Real)
(declare-fun x28 () Real)
(declare-fun x29 () Real)
(declare-fun f0_1 (Real) Real)
(declare-fun f0_2 (Real Real) Real)
(declare-fun f0_3 (Real Real Real) Real)
(declare-fun f0_4 (Real Real Real Real) Real)
(declare-fun P0 () Bool)
(declare-fun P1 () Bool)
(declare-fun P2 () Bool)
(declare-fun P3 () Bool)
(declare-fun P4 () Bool)
(declare-fun P5 () Bool)
(declare-fun P6 () Bool)
(declare-fun P7 () Bool)
(declare-fun P8 () Bool)
(declare-fun P9 () Bool)
(declare-fun P10 () Bool)
(declare-fun P11 () Bool)
(declare-fun P12 () Bool)
(declare-fun P13 () Bool)
(declare-fun P14 () Bool)
(declare-fun P15 () Bool)
(declare-fun P16 () Bool)
(declare-fun P17 () Bool)
(declare-fun P18 () Bool)
(declare-fun P19 () Bool)
(declare-fun P20 () Bool)
(declare-fun P21 () Bool)
(declare-fun P22 () Bool)
(declare-fun P23 () Bool)
(declare-fun P24 () Bool)
(declare-fun P25 () Bool)
(declare-fun P26 () Bool)
(declare-fun P27 () Bool)
(declare-fun P28 () Bool)
(declare-fun P29 () Bool)
(assert (let ((?v_133 (< (- (+ (* 37 x6) (* 23 x26)) (* 34 x14)) 44)) (?v_50 (<= (- (+ (* 18 x9) (* 27 x29)) (* 19 x27)) 7)) (?v_107 (* 14 x8))) (let ((?v_128 (<= (+ (- (* 9 x22) ?v_107) (* 30 x26)) 25)) (?v_113 (< (- (+ (* 37 x17) (* 32 x24)) (* 24 x14)) 0)) (?v_137 (<= (- (- (* 24 x22) (* 9 x11)) (* 12 x11)) 43)) (?v_55 (= (f0_1 x4) (f0_1 x17))) (?v_54 (f0_1 x24))) (let ((?v_38 (distinct (f0_1 x28) ?v_54)) (?v_101 (distinct x19 x2)) (?v_17 (distinct (f0_1 x10) x17)) (?v_22 (= (f0_1 x3) (f0_2 x7 x4))) (?v_41 (= (f0_2 x18 x27) (f0_2 x22 x2))) (?v_19 (f0_1 x8))) (let ((?v_69 (distinct x10 ?v_19)) (?v_77 (= (f0_1 x27) x11)) (?v_7 (= (f0_1 x26) (f0_2 x9 x25))) (?v_62 (= (f0_2 x21 x16) (f0_2 x9 x17))) (?v_86 (distinct (f0_2 x9 x2) (f0_1 x0))) (?v_1 (f0_1 x13))) (let ((?v_100 (distinct x18 ?v_1)) (?v_58 (f0_1 x12))) (let ((?v_146 (= (f0_1 x7) ?v_58)) (?v_43 (f0_1 x2))) (let ((?v_3 (distinct ?v_43 (f0_1 x15))) (?v_109 (distinct (f0_2 x11 x25) (f0_2 x12 x0))) (?v_114 (= x29 ?v_19)) (?v_73 (= (f0_2 x12 x22) x12)) (?v_6 (distinct (f0_1 x18) (f0_2 x22 x20))) (?v_116 (= x11 ?v_54)) (?v_40 (distinct x29 x19)) (?v_91 (= x28 (f0_1 x1))) (?v_34 (= (f0_2 x20 x7) ?v_1)) (?v_110 (= x21 ?v_43)) (?v_121 (= ?v_58 ?v_19)) (?v_0 (distinct (f0_2 x16 x24) x6)) (?v_21 (distinct (f0_1 x25) (f0_1 x9))) (?v_9 (= x15 (f0_2 x18 x7))) (?v_12 (= ?v_1 x28)) (?v_80 (distinct x24 (f0_2 x29 x23))) (?v_29 (distinct (f0_2 x10 x29) (f0_1 x16)))) (let ((?v_92 (not ?v_114)) (?v_24 (not P12)) (?v_142 (not P7)) (?v_2 (not P1)) (?v_4 (not ?v_91)) (?v_61 (not ?v_6)) (?v_10 (not P14)) (?v_64 (not ?v_29)) (?v_98 (not ?v_0)) (?v_151 (not ?v_17)) (?v_23 (not ?v_80)) (?v_5 (not ?v_9)) (?v_53 (not P25)) (?v_65 (not ?v_7)) (?v_14 (not P27)) (?v_16 (not P21)) (?v_13 (not P3)) (?v_118 (not P8)) (?v_71 (not P24)) (?v_82 (not P20)) (?v_141 (not P10)) (?v_59 (not ?v_69)) (?v_90 (not ?v_21)) (?v_106 (not ?v_22)) (?v_52 (not P6)) (?v_83 (not ?v_40)) (?v_45 (not ?v_3)) (?v_27 (not ?v_12)) (?v_51 (not P28)) (?v_36 (not ?v_121)) (?v_26 (not P16)) (?v_35 (not ?v_113)) (?v_152 (not P22)) (?v_135 (not ?v_50)) (?v_39 (not ?v_38)) (?v_79 (not ?v_62)) (?v_48 (not ?v_101)) (?v_130 (not P15)) (?v_145 (not P5)) (?v_124 (not ?v_73)) (?v_122 (not ?v_146)) (?v_67 (not ?v_86)) (?v_131 (not P29)) (?v_68 (not ?v_137)) (?v_105 (not P18)) (?v_88 (not P19)) (?v_95 (not ?v_41)) (?v_96 (not P17)) (?v_136 (not P23)) (?v_99 (not P9)) (?v_108 (not ?v_100)) (?v_103 (not ?v_77)) (?v_111 (not ?v_128)) (?v_120 (not P26)) (?v_125 (not ?v_109)) (?v_132 (not P0)) (?v_117 (not P4)) (?v_144 (not ?v_116)) (?v_154 (not P13)) (?v_143 (not ?v_110)) (?v_148 (not P2)) (?v_138 (not ?v_133)) (?v_155 (not ?v_34)) (?v_156 (not P11)) (?v_33 (< (+ (* 20 x12) (* 40 x3) (* 40 x10)) 12)) (?v_93 (< (- (- 0 x18) 0) 14))) (let ((?v_31 (not ?v_93)) (?v_8 (= (- (* 39 x15) (* 32 x18)) 10))) (let ((?v_49 (not ?v_8)) (?v_37 (< (+ (- (* 24 x29) 0) (* 8 x14)) 40))) (let ((?v_30 (not ?v_37)) (?v_25 (<= (- (* 15 x22) (* 15 x15)) 0))) (let ((?v_81 (not ?v_25)) (?v_87 (<= (+ x8 (* 2 x23) (* 38 x2)) 18))) (let ((?v_126 (not ?v_87)) (?v_112 (<= (+ (* 40 x7) (* 3 x10)) 4))) (let ((?v_140 (not ?v_112)) (?v_127 (not ?v_33)) (?v_20 (< (+ (* (- 37) x9) (* 18 x24) (* 13 x6)) (- 22))) (?v_15 (< (+ (- 0 (* 21 x21)) (* 24 x26)) (- 32))) (?v_28 (< (+ x6 (* 4 x1) (* 18 x22)) (- 41)))) (let ((?v_11 (not ?v_28)) (?v_32 (< (- (+ (* 10 x1) (* 39 x25)) (* 20 x27)) (- 20))) (?v_60 (<= (+ (- (* (- 7) x11) (* 39 x10)) (* 34 x28)) (- 8))) (?v_56 (< (- (+ (* (- 37) x22) (* 2 x15)) (* 32 x7)) (- 2))) (?v_44 (< (+ (- (* (- 33) x0) (* 20 x9)) (* 10 x3)) 13))) (let ((?v_46 (not ?v_44)) (?v_42 (<= (- (- (* 33 x2) (* 16 x13)) (* 24 x17)) (- 13)))) (let ((?v_78 (not ?v_42)) (?v_139 (< (- (- (* (- 21) x27) (* 33 x27)) (* 42 x27)) 12))) (let ((?v_85 (not ?v_139)) (?v_57 (<= (- (- (* (- 36) x28) (* 14 x25)) (* 36 x2)) (- 31)))) (let ((?v_63 (not ?v_57)) (?v_18 (= (+ (- (* (- 35) x28) (* 30 x11)) ?v_107) 31)) (?v_47 (< (- (+ x23 (* 42 x11)) (* 23 x22)) (- 20)))) (let ((?v_72 (not ?v_47)) (?v_129 (not ?v_20)) (?v_84 (<= (- (- (* (- 13) x0) (* 27 x9)) (* 3 x19)) 42))) (let ((?v_104 (not ?v_84)) (?v_89 (not ?v_18)) (?v_119 (<= (- (- (* (- 40) x6) (* 31 x29)) (* 27 x7)) 16))) (let ((?v_102 (not ?v_119)) (?v_123 (not ?v_15)) (?v_150 (or ?v_39 ?v_56)) (?v_70 (<= (+ (- (* (- 22) x19) (* 40 x18)) (* 8 x3)) (- 35))) (?v_76 (not ?v_60)) (?v_94 (< (+ (- (* 15 x4) (* 41 x9)) x6) (- 17))) (?v_75 (< (+ (* (- 34) x12) (* 25 x23) (* 23 x25)) 6))) (let ((?v_66 (not ?v_75)) (?v_74 (= (- (* 31 x3) (* 26 x26)) (- 31)))) (let ((?v_97 (or ?v_3 ?v_74)) (?v_115 (not ?v_94)) (?v_134 (not ?v_70)) (?v_149 (not ?v_56)) (?v_147 (not ?v_74)) (?v_153 (not ?v_32))) (and (and (and (and (and (and (and (and (and (and (and (and (and (and (and (and (and (and (and (and (and (and (and (and (and (and (and (and (and (and (and (and (and (and (and (and (and (and (and (and (and (and (and (and (and (and (and (and (and (and (and (and (and (and (and (and (and (and (and (and (and (and (and (and (and (and (and (and (and (and (and (and (and (and (and (and (and (and (and (and (and (and (and (and (and (and (and (and (and (and (and (and (and (and (and (and (and (and (and (and (and (and (and (and (and (and (and (and (and (and (and (and (and (and (and (and (and (and (and (and (and (and (and (and (and (and (and (and (and (and (and (and (and (and (and (and (and (and (and (and (and (and (and (and (and (and (and (and (and (and (and (and (and (and (and (and (and (and (and (and (and (and (and (and (and (and (and (and (and (and (and (and (and (and (and (and (and (and (and (and (and (and (and (and (and (and (and (and (and (and (and (and (and (and (and (and (and (and (and (and (and (and (and (and (and (and (and (and (and (and (and (and (and (and (and (and (and (and (and (and (and (and (and (and (and (and (and (and (and (and (and (and (and (and (and (and (and (and (and (and (and (and (and (and (and (and (and (and (and (and (and (and (and (and (and (and (and (and (and (and (and (and (and (and (and (and (and (and (and (and (and (and (and (and (and (and (and (and (and (and (and (and (and (and (and (and (and (and (and (and (and (and (and (and (and (and (and (and (and (and (and (and (and (and (and (and (and (and (and (and (and (and (and (and (and (and (and (and (and (and (and (and (and (and (and (and (and (and (and (and (and (and (and (and (and (and (and (and (and (and (and (and (and (and (and (and (and (and (and (and (and (and (and (and (and (and (and (and (and (or (or ?v_33 P20) P5) (or (or ?v_20 ?v_92) ?v_31)) (or (or ?v_15 ?v_24) P14)) (or (or ?v_21 P9) ?v_142)) (or (or ?v_8 ?v_2) P25)) (or (or P21 ?v_7) ?v_11)) (or (or ?v_32 ?v_4) ?v_61)) (or (or ?v_41 ?v_60) ?v_10)) (or (or ?v_64 ?v_98) ?v_100)) (or (or ?v_0 ?v_151) P24)) (or (or ?v_38 ?v_12) ?v_34)) (or (or ?v_3 ?v_23) ?v_5)) (or (or P5 ?v_2) ?v_3)) (or (or ?v_4 ?v_56) ?v_5)) (or (or ?v_53 P18) ?v_46)) (or (or ?v_6 ?v_65) ?v_14)) (or (or P4 ?v_49) ?v_78)) (or (or ?v_9 ?v_10) ?v_11)) (or (or ?v_16 ?v_9) ?v_12)) (or (or P10 ?v_13) ?v_118)) (or (or ?v_71 ?v_13) ?v_85)) (or (or ?v_63 ?v_14) ?v_82)) (or (or ?v_15 ?v_16) P0)) (or (or ?v_141 ?v_17) P19)) (or (or ?v_18 ?v_18) ?v_59)) (or (or ?v_30 ?v_20) P4)) (or (or ?v_10 ?v_22) ?v_90)) (or (or ?v_72 ?v_81) ?v_106)) (or (or ?v_52 ?v_83) ?v_45)) (or (or ?v_27 P23) ?v_14)) (or (or ?v_23 ?v_51) P26)) (or (or P25 ?v_22) ?v_23)) (or (or P23 ?v_24) ?v_36)) (or (or ?v_25 P27) ?v_26)) (or (or ?v_35 ?v_26) ?v_27)) (or (or P7 ?v_28) ?v_152)) (or (or ?v_29 P21) ?v_30)) (or (or ?v_31 ?v_32) ?v_33)) (or (or ?v_34 ?v_30) ?v_35)) (or (or ?v_36 ?v_36) ?v_37)) (or (or ?v_135 P8) ?v_129)) (or (or ?v_3 ?v_37) ?v_12)) (or (or ?v_39 P17) P23)) (or (or ?v_39 ?v_104) ?v_40)) (or (or ?v_41 ?v_42) ?v_5)) (or (or P2 ?v_79) P1)) (or (or ?v_22 ?v_7) P1)) (or (or P27 P20) P21)) (or (or ?v_89 P28) ?v_110)) (or (or P13 ?v_44) ?v_45)) (or (or ?v_48 ?v_46) P3)) (or (or ?v_16 ?v_47) ?v_48)) (or (or ?v_130 ?v_49) P11)) (or (or ?v_55 P22) P16)) (or (or P10 ?v_145) ?v_102)) (or (or ?v_16 ?v_50) ?v_6)) (or (or ?v_9 ?v_51) P9)) (or (or ?v_52 ?v_53) ?v_116)) (or (or ?v_123 (not ?v_55)) ?v_124)) (or ?v_150 ?v_57)) (or (or ?v_70 ?v_57) P18)) (or (or ?v_122 ?v_59) ?v_67)) (or (or P22 ?v_50) ?v_131)) (or (or ?v_68 ?v_77) ?v_105)) (or (or ?v_4 ?v_60) P17)) (or (or ?v_61 P12) ?v_76)) (or (or ?v_62 ?v_94) ?v_45)) (or (or P8 ?v_2) ?v_126)) (or (or ?v_5 ?v_66) ?v_26)) (or (or ?v_63 ?v_64) ?v_0)) (or ?v_97 ?v_65)) (or (or P20 P6) P5)) (or (or ?v_66 ?v_67) ?v_36)) (or (or ?v_30 ?v_47) ?v_133)) (or (or ?v_68 ?v_69) P0)) (or (or ?v_8 ?v_70) ?v_53)) (or (or P17 ?v_46) ?v_71)) (or (or P4 ?v_68) ?v_39)) (or (or P14 ?v_26) ?v_13)) (or (or ?v_42 ?v_62) P6)) (or (or ?v_52 P23) ?v_15)) (or (or ?v_72 ?v_73) ?v_40)) (or (or ?v_28 ?v_74) ?v_40)) (or (or ?v_75 P24) ?v_88)) (or (or ?v_62 P18) ?v_44)) (or (or ?v_76 ?v_69) ?v_51)) (or (or ?v_77 ?v_78) ?v_10)) (or (or ?v_73 ?v_79) ?v_51)) (or (or ?v_80 ?v_95) ?v_96)) (or (or ?v_81 ?v_82) ?v_83)) (or (or ?v_84 ?v_85) ?v_86)) (or (or ?v_34 P13) ?v_67)) (or (or ?v_87 ?v_88) ?v_68)) (or (or ?v_22 ?v_80) ?v_75)) (or (or ?v_27 ?v_136) ?v_47)) (or (or ?v_57 ?v_42) ?v_51)) (or (or ?v_31 ?v_89) ?v_44)) (or (or ?v_90 ?v_91) P29)) (or (or ?v_92 ?v_64) ?v_5)) (or (or ?v_3 ?v_93) ?v_115)) (or (or ?v_90 P11) ?v_69)) (or (or ?v_85 ?v_35) ?v_7)) (or (or ?v_67 ?v_95) ?v_90)) (or (or P16 ?v_8) ?v_96)) (or ?v_97 P2)) (or (or ?v_38 ?v_98) P15)) (or (or ?v_140 ?v_72) ?v_35)) (or (or ?v_82 ?v_68) ?v_3)) (or (or ?v_62 ?v_99) P17)) (or (or ?v_6 ?v_47) ?v_24)) (or (or ?v_12 ?v_99) ?v_82)) (or (or ?v_88 ?v_127) ?v_108)) (or (or ?v_3 ?v_101) ?v_103)) (or (or ?v_102 ?v_81) ?v_88)) (or (or P11 ?v_39) ?v_90)) (or (or P11 ?v_24) P4)) (or (or ?v_103 ?v_104) ?v_105)) (or (or ?v_105 ?v_30) ?v_106)) (or (or P27 ?v_111) P3)) (or (or ?v_40 ?v_31) ?v_60)) (or (or ?v_108 ?v_8) ?v_10)) (or (or P16 ?v_62) ?v_40)) (or (or P10 ?v_30) P11)) (or (or ?v_76 ?v_103) ?v_45)) (or (or ?v_134 ?v_120) P18)) (or (or ?v_59 ?v_75) ?v_109)) (or (or ?v_93 ?v_53) ?v_149)) (or (or ?v_94 ?v_125) ?v_110)) (or (or ?v_33 P2) ?v_94)) (or (or ?v_132 ?v_111) ?v_112)) (or (or ?v_12 ?v_113) P12)) (or (or ?v_114 P26) ?v_79)) (or (or ?v_5 ?v_115) ?v_0)) (or (or ?v_66 ?v_109) ?v_62)) (or (or ?v_109 ?v_21) ?v_72)) (or (or ?v_49 ?v_94) P14)) (or (or ?v_53 ?v_117) ?v_13)) (or (or ?v_56 ?v_89) ?v_144)) (or (or ?v_79 ?v_59) ?v_94)) (or (or P14 ?v_13) ?v_61)) (or (or P16 ?v_117) ?v_154)) (or (or ?v_143 ?v_118) ?v_17)) (or (or ?v_119 ?v_40) ?v_120)) (or (or ?v_121 ?v_101) ?v_50)) (or (or ?v_32 ?v_100) ?v_59)) (or (or ?v_122 ?v_123) ?v_85)) (or (or P15 ?v_15) ?v_42)) (or (or ?v_79 ?v_87) ?v_37)) (or (or ?v_62 ?v_124) ?v_30)) (or (or ?v_40 ?v_22) ?v_29)) (or (or ?v_69 P24) P28)) (or (or ?v_50 ?v_92) ?v_83)) (or (or P23 P4) ?v_125)) (or (or ?v_14 ?v_83) ?v_125)) (or (or P19 ?v_63) ?v_7)) (or (or ?v_80 ?v_125) ?v_75)) (or (or ?v_79 ?v_39) ?v_106)) (or (or P11 ?v_27) ?v_120)) (or (or ?v_36 ?v_87) ?v_90)) (or (or ?v_24 ?v_33) ?v_29)) (or (or ?v_9 ?v_46) ?v_72)) (or (or P24 ?v_42) ?v_126)) (or (or ?v_91 ?v_18) ?v_52)) (or (or P5 P6) ?v_7)) (or (or ?v_101 ?v_36) ?v_127)) (or (or ?v_109 ?v_128) ?v_94)) (or (or ?v_27 ?v_129) ?v_49)) (or (or ?v_100 ?v_130) ?v_131)) (or (or ?v_60 ?v_31) ?v_104)) (or (or P25 ?v_25) ?v_27)) (or (or ?v_108 ?v_73) ?v_37)) (or (or ?v_73 ?v_40) P14)) (or (or P22 ?v_37) ?v_59)) (or (or ?v_131 ?v_111) ?v_132)) (or (or P4 ?v_33) ?v_93)) (or (or ?v_147 ?v_14) ?v_15)) (or (or P7 ?v_64) ?v_72)) (or (or P11 ?v_101) ?v_87)) (or (or ?v_89 ?v_31) ?v_111)) (or (or ?v_91 ?v_67) ?v_100)) (or (or ?v_148 P28) ?v_6)) (or (or ?v_138 ?v_112) ?v_57)) (or (or ?v_12 P15) ?v_21)) (or (or P16 ?v_96) ?v_23)) (or (or ?v_118 ?v_129) ?v_134)) (or (or ?v_52 P22) ?v_134)) (or (or ?v_52 ?v_67) ?v_42)) (or (or ?v_135 P23) ?v_76)) (or (or ?v_136 ?v_118) ?v_15)) (or (or ?v_137 ?v_38) ?v_90)) (or (or ?v_0 ?v_102) P7)) (or (or ?v_12 ?v_130) P20)) (or (or ?v_125 ?v_7) ?v_5)) (or (or ?v_37 ?v_138) ?v_78)) (or (or ?v_87 P17) ?v_108)) (or (or ?v_50 ?v_67) ?v_75)) (or (or ?v_138 ?v_84) P25)) (or (or ?v_137 ?v_139) ?v_10)) (or (or ?v_25 ?v_66) ?v_22)) (or (or ?v_155 ?v_117) ?v_140)) (or (or ?v_40 ?v_62) ?v_140)) (or (or ?v_88 ?v_77) ?v_4)) (or (or ?v_109 P10) ?v_37)) (or (or ?v_128 ?v_141) ?v_153)) (or (or ?v_84 ?v_29) ?v_36)) (or (or ?v_51 ?v_142) ?v_138)) (or (or ?v_143 ?v_34) ?v_130)) (or (or ?v_4 ?v_33) ?v_2)) (or (or P25 ?v_109) ?v_12)) (or (or ?v_91 P1) ?v_12)) (or (or P0 ?v_56) ?v_10)) (or (or ?v_140 P9) P18)) (or (or ?v_21 ?v_12) ?v_32)) (or (or ?v_132 ?v_77) ?v_7)) (or (or ?v_104 ?v_94) ?v_30)) (or (or ?v_144 ?v_126) ?v_119)) (or (or P10 P22) P2)) (or (or ?v_99 ?v_141) ?v_92)) (or (or ?v_53 ?v_74) ?v_25)) (or (or ?v_47 ?v_145) ?v_82)) (or (or ?v_13 ?v_36) P16)) (or (or ?v_121 ?v_122) ?v_100)) (or (or ?v_31 ?v_145) ?v_116)) (or (or P21 ?v_138) ?v_71)) (or (or ?v_17 ?v_20) ?v_12)) (or (or ?v_121 ?v_88) ?v_57)) (or (or ?v_26 ?v_88) ?v_145)) (or (or ?v_69 ?v_7) ?v_81)) (or (or ?v_53 ?v_146) ?v_41)) (or (or ?v_143 ?v_69) ?v_48)) (or (or ?v_42 P12) ?v_82)) (or (or ?v_55 ?v_84) ?v_92)) (or (or ?v_0 P24) ?v_135)) (or (or ?v_63 ?v_122) ?v_74)) (or (or ?v_51 P13) ?v_12)) (or (or P24 ?v_98) ?v_104)) (or (or ?v_20 ?v_42) ?v_135)) (or (or ?v_102 ?v_68) ?v_146)) (or (or ?v_124 ?v_27) P4)) (or (or ?v_0 ?v_2) ?v_84)) (or (or ?v_90 ?v_137) ?v_132)) (or (or ?v_34 ?v_53) ?v_143)) (or (or ?v_141 ?v_68) P13)) (or (or ?v_89 ?v_49) ?v_47)) (or (or ?v_40 ?v_131) ?v_82)) (or (or P12 P20) P22)) (or (or P17 ?v_101) ?v_98)) (or (or ?v_88 ?v_88) ?v_147)) (or (or ?v_75 ?v_78) ?v_84)) (or (or P1 ?v_101) ?v_21)) (or (or ?v_13 ?v_51) ?v_111)) (or (or ?v_89 ?v_122) ?v_94)) (or (or ?v_132 ?v_130) P16)) (or (or ?v_156 ?v_148) ?v_149)) (or (or P0 ?v_101) ?v_125)) (or (or ?v_7 ?v_100) ?v_51)) (or (or ?v_7 ?v_80) P29)) (or (or ?v_145 ?v_70) ?v_108)) (or (or ?v_119 ?v_29) ?v_104)) (or (or ?v_80 ?v_91) P6)) (or (or P0 ?v_20) P22)) (or (or P17 P6) ?v_72)) (or (or ?v_49 ?v_124) ?v_24)) (or ?v_150 ?v_77)) (or (or ?v_146 ?v_47) ?v_83)) (or (or ?v_113 ?v_146) P6)) (or (or ?v_121 ?v_65) ?v_151)) (or (or ?v_98 ?v_2) ?v_112)) (or (or ?v_89 ?v_65) ?v_6)) (or (or ?v_15 ?v_53) ?v_17)) (or (or ?v_82 P2) ?v_140)) (or (or ?v_61 ?v_52) ?v_152)) (or (or P13 ?v_64) ?v_53)) (or (or ?v_130 ?v_126) ?v_96)) (or (or ?v_14 ?v_153) ?v_22)) (or (or ?v_120 ?v_100) ?v_88)) (or (or ?v_75 ?v_51) ?v_136)) (or (or ?v_59 ?v_77) ?v_112)) (or (or ?v_70 ?v_7) ?v_13)) (or (or P16 ?v_154) ?v_111)) (or (or P2 ?v_6) ?v_41)) (or (or ?v_82 ?v_21) ?v_142)) (or (or ?v_36 ?v_57) ?v_66)) (or (or ?v_126 ?v_103) ?v_13)) (or (or P9 P9) ?v_80)) (or (or ?v_32 ?v_104) ?v_53)) (or (or P5 ?v_127) ?v_11)) (or (or ?v_45 ?v_127) ?v_6)) (or (or ?v_125 ?v_118) ?v_139)) (or (or ?v_5 ?v_9) P4)) (or (or ?v_87 ?v_152) ?v_42)) (or (or ?v_63 ?v_143) ?v_90)) (or (or ?v_148 ?v_108) ?v_79)) (or (or ?v_153 P19) ?v_94)) (or (or ?v_116 ?v_61) P17)) (or (or ?v_45 ?v_145) ?v_82)) (or (or ?v_46 P15) ?v_86)) (or (or ?v_102 P11) ?v_142)) (or (or ?v_68 ?v_33) ?v_72)) (or (or ?v_6 ?v_103) ?v_155)) (or (or ?v_137 ?v_63) ?v_128)) (or (or ?v_71 ?v_8) P9)) (or (or P20 ?v_34) ?v_84)) (or (or ?v_5 ?v_152) ?v_42)) (or (or ?v_122 ?v_53) ?v_50)) (or (or ?v_71 ?v_98) ?v_27)) (or (or ?v_147 ?v_128) ?v_96)) (or (or ?v_29 P9) P14)) (or (or ?v_101 ?v_155) ?v_73)) (or (or ?v_17 ?v_63) ?v_113)) (or (or ?v_83 P28) ?v_132)) (or (or ?v_137 ?v_57) ?v_124)) (or (or ?v_64 ?v_9) P10)) (or (or ?v_17 ?v_41) ?v_53)) (or (or P8 ?v_84) ?v_136)) (or (or ?v_154 P10) ?v_84)) (or (or ?v_115 ?v_143) ?v_48)) (or (or ?v_101 ?v_126) P9)) (or (or ?v_39 ?v_117) ?v_64)) (or (or ?v_45 ?v_84) ?v_119)) (or (or ?v_73 ?v_105) ?v_85)) (or (or ?v_57 ?v_83) P4)) (or (or ?v_153 ?v_112) ?v_16)) (or (or P29 P8) P21)) (or (or P6 ?v_55) P28)) (or (or ?v_33 ?v_52) P24)) (or (or P16 P15) ?v_96)) (or (or ?v_141 ?v_83) ?v_154)) (or (or ?v_83 ?v_32) ?v_138)) (or (or ?v_129 ?v_148) ?v_62)) (or (or ?v_119 ?v_31) ?v_21)) (or (or ?v_126 ?v_36) ?v_90)) (or (or ?v_77 P20) ?v_110)) (or (or ?v_101 ?v_109) ?v_111)) (or (or ?v_21 ?v_152) ?v_36)) (or (or ?v_55 ?v_49) ?v_77)) (or (or ?v_78 ?v_121) ?v_73)) (or (or ?v_66 ?v_25) P3)) (or (or ?v_137 ?v_89) ?v_81)) (or (or ?v_21 ?v_33) ?v_144)) (or (or ?v_110 ?v_8) ?v_156)) (or (or ?v_61 ?v_94) ?v_50)) (or (or ?v_90 ?v_52) P4)) (or (or ?v_146 ?v_119) ?v_57)) (or (or ?v_57 P17) ?v_139)) (or (or ?v_34 ?v_80) ?v_121)) (or (or ?v_115 ?v_91) ?v_154)) (or (or ?v_16 P19) P5)) (or (or ?v_45 ?v_115) ?v_25)) (or (or ?v_24 P7) ?v_89)) (or (or ?v_111 P23) ?v_72)) (or (or ?v_92 ?v_28) ?v_29)) (or (or ?v_6 ?v_155) ?v_109)) (or (or ?v_36 P17) ?v_15)) (or (or ?v_65 ?v_12) P2)) (or (or P16 P29) P15)) (or (or ?v_143 ?v_25) ?v_106)) (or (or ?v_25 ?v_0) ?v_126)) (or (or ?v_154 ?v_27) ?v_143)) (or (or ?v_28 ?v_140) ?v_89)))))))))))))))))))))))))))
(check-sat)
(exit)
